(set-logic HORN)
(declare-datatypes ((Bool_186 0)) (((false_186 ) (true_186 ))))
(declare-fun diseqBool_81 (Bool_186 Bool_186) Bool)
(declare-fun isfalse_81 (Bool_186) Bool)
(declare-fun istrue_81 (Bool_186) Bool)
(assert (isfalse_81 false_186))
(assert (istrue_81 true_186))
(assert (diseqBool_81 false_186 true_186))
(assert (diseqBool_81 true_186 false_186))
(declare-fun and_186 (Bool_186 Bool_186 Bool_186) Bool)
(declare-fun or_189 (Bool_186 Bool_186 Bool_186) Bool)
(declare-fun hence_186 (Bool_186 Bool_186 Bool_186) Bool)
(declare-fun not_188 (Bool_186 Bool_186) Bool)
(assert (and_186 false_186 false_186 false_186))
(assert (and_186 false_186 true_186 false_186))
(assert (and_186 false_186 false_186 true_186))
(assert (and_186 true_186 true_186 true_186))
(assert (or_189 false_186 false_186 false_186))
(assert (or_189 true_186 true_186 false_186))
(assert (or_189 true_186 false_186 true_186))
(assert (or_189 true_186 true_186 true_186))
(assert (hence_186 true_186 false_186 false_186))
(assert (hence_186 false_186 true_186 false_186))
(assert (hence_186 true_186 false_186 true_186))
(assert (hence_186 true_186 true_186 true_186))
(assert (not_188 true_186 false_186))
(assert (not_188 false_186 true_186))
(declare-datatypes ((Nat_323 0)) (((zero_65 ) (succ_64 (p_177 Nat_323)))))
(declare-fun diseqNat_323 (Nat_323 Nat_323) Bool)
(declare-fun p_178 (Nat_323 Nat_323) Bool)
(declare-fun iszero_64 (Nat_323) Bool)
(declare-fun issucc_64 (Nat_323) Bool)
(assert (forall ((x_27661 Nat_323))
	(p_178 x_27661 (succ_64 x_27661))))
(assert (iszero_64 zero_65))
(assert (forall ((x_27663 Nat_323))
	(issucc_64 (succ_64 x_27663))))
(assert (forall ((x_27664 Nat_323))
	(diseqNat_323 zero_65 (succ_64 x_27664))))
(assert (forall ((x_27665 Nat_323))
	(diseqNat_323 (succ_64 x_27665) zero_65)))
(assert (forall ((x_27666 Nat_323) (x_27667 Nat_323))
	(=> (diseqNat_323 x_27666 x_27667)
	    (diseqNat_323 (succ_64 x_27666) (succ_64 x_27667)))))
(declare-datatypes ((list_131 0)) (((nil_145 ) (cons_131 (head_262 Nat_323) (tail_262 list_131)))))
(declare-fun diseqlist_131 (list_131 list_131) Bool)
(declare-fun head_263 (Nat_323 list_131) Bool)
(declare-fun tail_263 (list_131 list_131) Bool)
(declare-fun isnil_145 (list_131) Bool)
(declare-fun iscons_131 (list_131) Bool)
(assert (forall ((x_27669 Nat_323) (x_27670 list_131))
	(head_263 x_27669 (cons_131 x_27669 x_27670))))
(assert (forall ((x_27669 Nat_323) (x_27670 list_131))
	(tail_263 x_27670 (cons_131 x_27669 x_27670))))
(assert (isnil_145 nil_145))
(assert (forall ((x_27672 Nat_323) (x_27673 list_131))
	(iscons_131 (cons_131 x_27672 x_27673))))
(assert (forall ((x_27674 Nat_323) (x_27675 list_131))
	(diseqlist_131 nil_145 (cons_131 x_27674 x_27675))))
(assert (forall ((x_27676 Nat_323) (x_27677 list_131))
	(diseqlist_131 (cons_131 x_27676 x_27677) nil_145)))
(assert (forall ((x_27678 Nat_323) (x_27679 list_131) (x_27680 Nat_323) (x_27681 list_131))
	(=> (diseqNat_323 x_27678 x_27680)
	    (diseqlist_131 (cons_131 x_27678 x_27679) (cons_131 x_27680 x_27681)))))
(assert (forall ((x_27678 Nat_323) (x_27679 list_131) (x_27680 Nat_323) (x_27681 list_131))
	(=> (diseqlist_131 x_27679 x_27681)
	    (diseqlist_131 (cons_131 x_27678 x_27679) (cons_131 x_27680 x_27681)))))
(declare-datatypes ((pair_52 0)) (((pair_53 (projpair_104 list_131) (projpair_105 list_131)))))
(declare-fun diseqpair_26 (pair_52 pair_52) Bool)
(declare-fun projpair_106 (list_131 pair_52) Bool)
(declare-fun projpair_107 (list_131 pair_52) Bool)
(declare-fun ispair_26 (pair_52) Bool)
(assert (forall ((x_27682 list_131) (x_27683 list_131))
	(projpair_106 x_27682 (pair_53 x_27682 x_27683))))
(assert (forall ((x_27682 list_131) (x_27683 list_131))
	(projpair_107 x_27683 (pair_53 x_27682 x_27683))))
(assert (forall ((x_27685 list_131) (x_27686 list_131))
	(ispair_26 (pair_53 x_27685 x_27686))))
(assert (forall ((x_27687 list_131) (x_27688 list_131) (x_27689 list_131) (x_27690 list_131))
	(=> (diseqlist_131 x_27687 x_27689)
	    (diseqpair_26 (pair_53 x_27687 x_27688) (pair_53 x_27689 x_27690)))))
(assert (forall ((x_27687 list_131) (x_27688 list_131) (x_27689 list_131) (x_27690 list_131))
	(=> (diseqlist_131 x_27688 x_27690)
	    (diseqpair_26 (pair_53 x_27687 x_27688) (pair_53 x_27689 x_27690)))))
(declare-fun take_27 (list_131 Nat_323 list_131) Bool)
(assert (forall ((x_27553 list_131) (z_1060 Nat_323) (xs_347 list_131) (z_1059 Nat_323))
	(=> (take_27 x_27553 z_1059 xs_347)
	    (take_27 (cons_131 z_1060 x_27553) (succ_64 z_1059) (cons_131 z_1060 xs_347)))))
(assert (forall ((z_1059 Nat_323))
	(take_27 nil_145 (succ_64 z_1059) nil_145)))
(assert (forall ((y_1107 list_131))
	(take_27 nil_145 zero_65 y_1107)))
(declare-fun plus_59 (Nat_323 Nat_323 Nat_323) Bool)
(assert (forall ((x_27557 Nat_323) (z_1061 Nat_323) (y_1108 Nat_323))
	(=> (plus_59 x_27557 z_1061 y_1108)
	    (plus_59 (succ_64 x_27557) (succ_64 z_1061) y_1108))))
(assert (forall ((x_27558 Nat_323))
	(plus_59 x_27558 zero_65 x_27558)))
(declare-fun times_13 (Nat_323 Nat_323 Nat_323) Bool)
(assert (forall ((x_27559 Nat_323) (x_27560 Nat_323) (z_1062 Nat_323) (y_1109 Nat_323))
	(=>	(and (times_13 x_27560 z_1062 y_1109)
			(plus_59 x_27559 y_1109 x_27560))
		(times_13 x_27559 (succ_64 z_1062) y_1109))))
(assert (forall ((y_1109 Nat_323))
	(times_13 zero_65 zero_65 y_1109)))
(declare-fun minus_191 (Nat_323 Nat_323 Nat_323) Bool)
(assert (forall ((x_27563 Nat_323) (y_1111 Nat_323) (z_1063 Nat_323))
	(=> (minus_191 x_27563 z_1063 y_1111)
	    (minus_191 x_27563 (succ_64 z_1063) (succ_64 y_1111)))))
(assert (forall ((z_1063 Nat_323))
	(minus_191 zero_65 (succ_64 z_1063) zero_65)))
(assert (forall ((y_1110 Nat_323))
	(minus_191 zero_65 zero_65 y_1110)))
(declare-fun lt_195 (Bool_186 Nat_323 Nat_323) Bool)
(assert (forall ((x_27567 Bool_186) (n_58 Nat_323) (z_1064 Nat_323))
	(=> (lt_195 x_27567 n_58 z_1064)
	    (lt_195 x_27567 (succ_64 n_58) (succ_64 z_1064)))))
(assert (forall ((z_1064 Nat_323))
	(lt_195 true_186 zero_65 (succ_64 z_1064))))
(assert (forall ((x_27522 Nat_323))
	(lt_195 false_186 x_27522 zero_65)))
(declare-fun leq_24 (Bool_186 Nat_323 Nat_323) Bool)
(assert (forall ((x_27571 Bool_186) (x_27524 Nat_323) (z_1065 Nat_323))
	(=> (leq_24 x_27571 z_1065 x_27524)
	    (leq_24 x_27571 (succ_64 z_1065) (succ_64 x_27524)))))
(assert (forall ((z_1065 Nat_323))
	(leq_24 false_186 (succ_64 z_1065) zero_65)))
(assert (forall ((y_1113 Nat_323))
	(leq_24 true_186 zero_65 y_1113)))
(declare-fun sort_18 (list_131 Nat_323 Nat_323) Bool)
(assert (forall ((x_27525 Nat_323) (y_1114 Nat_323))
	(=> (leq_24 true_186 x_27525 y_1114)
	    (sort_18 (cons_131 x_27525 (cons_131 y_1114 nil_145)) x_27525 y_1114))))
(assert (forall ((x_27525 Nat_323) (y_1114 Nat_323))
	(=> (leq_24 false_186 x_27525 y_1114)
	    (sort_18 (cons_131 y_1114 (cons_131 x_27525 nil_145)) x_27525 y_1114))))
(declare-fun length_15 (Nat_323 list_131) Bool)
(assert (forall ((x_27579 Nat_323) (x_27580 Nat_323) (y_1115 Nat_323) (l_17 list_131))
	(=>	(and (length_15 x_27580 l_17)
			(plus_59 x_27579 (succ_64 zero_65) x_27580))
		(length_15 x_27579 (cons_131 y_1115 l_17)))))
(assert (length_15 zero_65 nil_145))
(declare-fun idiv_5 (Nat_323 Nat_323 Nat_323) Bool)
(assert (forall ((x_27527 Nat_323) (y_1116 Nat_323))
	(=> (lt_195 true_186 x_27527 y_1116)
	    (idiv_5 zero_65 x_27527 y_1116))))
(assert (forall ((x_27587 Nat_323) (x_27588 Nat_323) (x_27527 Nat_323) (y_1116 Nat_323))
	(=>	(and (minus_191 x_27587 x_27527 y_1116)
			(idiv_5 x_27588 x_27587 y_1116)
			(lt_195 false_186 x_27527 y_1116))
		(idiv_5 (succ_64 x_27588) x_27527 y_1116))))
(declare-fun drop_29 (list_131 Nat_323 list_131) Bool)
(assert (forall ((x_27589 list_131) (z_1067 Nat_323) (xs_348 list_131) (z_1066 Nat_323))
	(=> (drop_29 x_27589 z_1066 xs_348)
	    (drop_29 x_27589 (succ_64 z_1066) (cons_131 z_1067 xs_348)))))
(assert (forall ((z_1066 Nat_323))
	(drop_29 nil_145 (succ_64 z_1066) nil_145)))
(assert (forall ((x_27592 list_131))
	(drop_29 x_27592 zero_65 x_27592)))
(declare-fun splitAt_10 (pair_52 Nat_323 list_131) Bool)
(assert (forall ((x_27594 list_131) (x_27595 list_131) (x_27529 Nat_323) (y_1118 list_131))
	(=>	(and (take_27 x_27594 x_27529 y_1118)
			(drop_29 x_27595 x_27529 y_1118))
		(splitAt_10 (pair_53 x_27594 x_27595) x_27529 y_1118))))
(declare-fun count_21 (Nat_323 Nat_323 list_131) Bool)
(assert (forall ((x_27596 Nat_323) (x_27597 Nat_323) (ys_109 list_131) (x_27530 Nat_323))
	(=>	(and (count_21 x_27597 x_27530 ys_109)
			(plus_59 x_27596 (succ_64 zero_65) x_27597))
		(count_21 x_27596 x_27530 (cons_131 x_27530 ys_109)))))
(assert (forall ((x_27599 Nat_323) (z_1068 Nat_323) (ys_109 list_131) (x_27530 Nat_323))
	(=>	(and (diseqNat_323 x_27530 z_1068)
			(count_21 x_27599 x_27530 ys_109))
		(count_21 x_27599 x_27530 (cons_131 z_1068 ys_109)))))
(assert (forall ((x_27530 Nat_323))
	(count_21 zero_65 x_27530 nil_145)))
(declare-fun x_27531 (list_131 list_131 list_131) Bool)
(assert (forall ((x_27603 list_131) (z_1069 Nat_323) (xs_349 list_131) (y_1120 list_131))
	(=> (x_27531 x_27603 xs_349 y_1120)
	    (x_27531 (cons_131 z_1069 x_27603) (cons_131 z_1069 xs_349) y_1120))))
(assert (forall ((x_27604 list_131))
	(x_27531 x_27604 nil_145 x_27604)))
(declare-fun stoogesort_21 (list_131 list_131) Bool)
(declare-fun stoogesort_22 (list_131 list_131) Bool)
(declare-fun stoogesort_23 (list_131 list_131) Bool)
(assert (forall ((x_27609 list_131) (x_27610 list_131) (x_27605 Nat_323) (x_27606 Nat_323) (x_27607 Nat_323) (ys_110 list_131) (zs_32 list_131) (x_27533 list_131))
	(=>	(and (stoogesort_22 x_27610 ys_110)
			(x_27531 x_27609 x_27610 zs_32)
			(length_15 x_27605 x_27533)
			(times_13 x_27606 (succ_64 (succ_64 zero_65)) x_27605)
			(idiv_5 x_27607 (succ_64 x_27606) (succ_64 (succ_64 (succ_64 zero_65))))
			(splitAt_10 (pair_53 ys_110 zs_32) x_27607 x_27533))
		(stoogesort_21 x_27609 x_27533))))
(assert (forall ((x_27612 list_131) (x_27613 list_131) (x_27614 list_131) (x_27536 Nat_323) (x_27537 list_131) (y_1122 Nat_323) (y_1121 Nat_323))
	(=>	(and (stoogesort_21 x_27613 (cons_131 y_1121 (cons_131 y_1122 (cons_131 x_27536 x_27537))))
			(stoogesort_23 x_27614 x_27613)
			(stoogesort_21 x_27612 x_27614))
		(stoogesort_22 x_27612 (cons_131 y_1121 (cons_131 y_1122 (cons_131 x_27536 x_27537)))))))
(assert (forall ((x_27616 list_131) (y_1122 Nat_323) (y_1121 Nat_323))
	(=> (sort_18 x_27616 y_1121 y_1122)
	    (stoogesort_22 x_27616 (cons_131 y_1121 (cons_131 y_1122 nil_145))))))
(assert (forall ((y_1121 Nat_323))
	(stoogesort_22 (cons_131 y_1121 nil_145) (cons_131 y_1121 nil_145))))
(assert (stoogesort_22 nil_145 nil_145))
(assert (forall ((x_27623 list_131) (x_27624 list_131) (x_27620 Nat_323) (x_27621 Nat_323) (ys_111 list_131) (zs_33 list_131) (x_27538 list_131))
	(=>	(and (stoogesort_22 x_27624 zs_33)
			(x_27531 x_27623 ys_111 x_27624)
			(length_15 x_27620 x_27538)
			(idiv_5 x_27621 x_27620 (succ_64 (succ_64 (succ_64 zero_65))))
			(splitAt_10 (pair_53 ys_111 zs_33) x_27621 x_27538))
		(stoogesort_23 x_27623 x_27538))))
(assert (forall ((x_27626 Nat_323) (x_27627 Nat_323) (x_27628 Nat_323) (x_27629 Nat_323) (x_27539 Nat_323) (y_1123 Nat_323) (z_1071 Nat_323))
	(=>	(and true
			(diseqNat_323 x_27627 x_27629)
			(times_13 x_27626 y_1123 z_1071)
			(times_13 x_27627 x_27539 x_27626)
			(times_13 x_27628 x_27539 y_1123)
			(times_13 x_27629 x_27628 z_1071))
		false)))
(assert (forall ((x_27630 Nat_323) (x_27631 Nat_323) (x_27632 Nat_323) (x_27633 Nat_323) (x_27540 Nat_323) (y_1124 Nat_323) (z_1072 Nat_323))
	(=>	(and true
			(diseqNat_323 x_27631 x_27633)
			(plus_59 x_27630 y_1124 z_1072)
			(plus_59 x_27631 x_27540 x_27630)
			(plus_59 x_27632 x_27540 y_1124)
			(plus_59 x_27633 x_27632 z_1072))
		false)))
(assert (forall ((x_27634 Nat_323) (x_27635 Nat_323) (x_27541 Nat_323) (y_1125 Nat_323))
	(=>	(and true
			(diseqNat_323 x_27634 x_27635)
			(times_13 x_27634 x_27541 y_1125)
			(times_13 x_27635 y_1125 x_27541))
		false)))
(assert (forall ((x_27636 Nat_323) (x_27637 Nat_323) (x_27542 Nat_323) (y_1126 Nat_323))
	(=>	(and true
			(diseqNat_323 x_27636 x_27637)
			(plus_59 x_27636 x_27542 y_1126)
			(plus_59 x_27637 y_1126 x_27542))
		false)))
(assert (forall ((x_27638 Nat_323) (x_27639 Nat_323) (x_27640 Nat_323) (x_27641 Nat_323) (x_27642 Nat_323) (x_27543 Nat_323) (y_1127 Nat_323) (z_1073 Nat_323))
	(=>	(and true
			(diseqNat_323 x_27639 x_27642)
			(plus_59 x_27638 y_1127 z_1073)
			(times_13 x_27639 x_27543 x_27638)
			(times_13 x_27640 x_27543 y_1127)
			(times_13 x_27641 x_27543 z_1073)
			(plus_59 x_27642 x_27640 x_27641))
		false)))
(assert (forall ((x_27643 Nat_323) (x_27644 Nat_323) (x_27645 Nat_323) (x_27646 Nat_323) (x_27647 Nat_323) (x_27544 Nat_323) (y_1128 Nat_323) (z_1074 Nat_323))
	(=>	(and true
			(diseqNat_323 x_27644 x_27647)
			(plus_59 x_27643 x_27544 y_1128)
			(times_13 x_27644 x_27643 z_1074)
			(times_13 x_27645 x_27544 z_1074)
			(times_13 x_27646 y_1128 z_1074)
			(plus_59 x_27647 x_27645 x_27646))
		false)))
(assert (forall ((x_27648 Nat_323) (x_27545 Nat_323))
	(=>	(and true
			(diseqNat_323 x_27648 x_27545)
			(times_13 x_27648 x_27545 (succ_64 zero_65)))
		false)))
(assert (forall ((x_27649 Nat_323) (x_27546 Nat_323))
	(=>	(and true
			(diseqNat_323 x_27649 x_27546)
			(times_13 x_27649 (succ_64 zero_65) x_27546))
		false)))
(assert (forall ((x_27650 Nat_323) (x_27547 Nat_323))
	(=>	(and true
			(diseqNat_323 x_27650 x_27547)
			(plus_59 x_27650 x_27547 zero_65))
		false)))
(assert (forall ((x_27651 Nat_323) (x_27548 Nat_323))
	(=>	(and true
			(diseqNat_323 x_27651 x_27548)
			(plus_59 x_27651 zero_65 x_27548))
		false)))
(assert (forall ((x_27652 Nat_323) (x_27549 Nat_323))
	(=>	(and true
			(diseqNat_323 x_27652 zero_65)
			(times_13 x_27652 x_27549 zero_65))
		false)))
(assert (forall ((x_27653 Nat_323) (x_27550 Nat_323))
	(=>	(and true
			(diseqNat_323 x_27653 zero_65)
			(times_13 x_27653 zero_65 x_27550))
		false)))
(assert (forall ((x_27654 list_131) (x_27655 Nat_323) (x_27656 Nat_323) (x_27551 Nat_323) (xs_350 list_131))
	(=>	(and true
			(diseqNat_323 x_27655 x_27656)
			(stoogesort_22 x_27654 xs_350)
			(count_21 x_27655 x_27551 x_27654)
			(count_21 x_27656 x_27551 xs_350))
		false)))
(check-sat)
